unknown
(model
; cardinality of BoundSet is 1
(declare-sort BoundSet 0)
; rep: @uc_BoundSet_0
; cardinality of UnboundSet is 1
(declare-sort UnboundSet 0)
(declare-fun groundTerm_2 () UnboundSet)
(define-fun DrivingOverSpeedLimit ((BOUND_VARIABLE_363 BoundSet)) Bool true)
(define-fun ReceivedTicket ((BOUND_VARIABLE_375 BoundSet) (BOUND_VARIABLE_376 BoundSet)) Bool false)
)
sat
(model
; cardinality of BoundSet is 1
(declare-sort BoundSet 0)
; rep: @uc_BoundSet_0
; cardinality of UnboundSet is 1
(declare-sort UnboundSet 0)
(declare-fun groundTerm_4 () UnboundSet)
(define-fun DrivingOverSpeedLimit ((BOUND_VARIABLE_387 BoundSet)) Bool true)
(define-fun ReceivedTicket ((BOUND_VARIABLE_395 BoundSet) (BOUND_VARIABLE_396 BoundSet)) Bool false)
)
